Version identifier: 20.1.0.0 | 2020-11-10 | 9bedb6d68
CPXPARAM_Threads                                 1
CPXPARAM_TimeLimit                               7200
CPXPARAM_MIP_Tolerances_MIPGap                   0
Generic callback                                 0x60
1 of 1 MIP starts provided solutions.
MIP start 'm1' defined initial solution with objective 3773.5648.
Tried aggregator 1 time.
Reduced MIP has 1001001 rows, 1001001 columns, and 3001000 nonzeros.
Reduced MIP has 1000 binaries, 0 generals, 0 SOSs, and 0 indicators.
Presolve time = 0.92 sec. (798.63 ticks)
Probing time = 0.13 sec. (125.04 ticks)
Tried aggregator 1 time.
Reduced MIP has 1001001 rows, 1001001 columns, and 3001000 nonzeros.
Reduced MIP has 1000 binaries, 0 generals, 0 SOSs, and 0 indicators.
Presolve time = 0.91 sec. (782.41 ticks)
Probing time = 0.13 sec. (125.04 ticks)
MIP emphasis: balance optimality and feasibility.
MIP search method: dynamic search.
Parallel mode: none, using 1 thread.
Root relaxation solution time = 0.33 sec. (385.50 ticks)

        Nodes                                         Cuts/
   Node  Left     Objective  IInf  Best Integer    Best Bound    ItCnt     Gap

*     0+    0                         3773.5648     5432.0000            43.95%
      0     0     3933.9743    55     3773.5648     5432.0000        0   43.95%
      0     0     3933.9739    56     3773.5648      Fract: 2        1    4.25%
      0     0     3933.9729    57     3773.5648      Fract: 2        9    4.25%
      0     2     3933.9729    57     3773.5648     3933.9721        9    4.25%
Elapsed time = 171.74 sec. (131124.38 ticks, tree = 0.01 MB, solutions = 1)
      1     3     3776.3480    55     3773.5648     3933.9721    18442    4.25%
      2     4     3776.2282    42     3773.5648     3776.3478    35158    0.07%
      3     5     3776.1482    39     3773.5648     3776.3478    35344    0.07%
      4     6     3776.1453    35     3773.5648     3776.3478    35367    0.07%
      5     7     3776.1279    34     3773.5648     3776.3478    35459    0.07%
      6     8     3776.0784    45     3773.5648     3776.3478    35724    0.07%
      7     9     3775.9596    14     3773.5648     3776.3478    36820    0.07%
      8    10     3775.9377    10     3773.5648     3776.3478    36827    0.07%
      9    11     3775.9319     6     3773.5648     3776.3478    36913    0.07%
*    10+   10                         3775.7776     3776.3478             0.02%
     10    12     3775.8782     6     3775.7776     3776.3478    37156    0.02%
Elapsed time = 684.20 sec. (437429.83 ticks, tree = 10.87 MB, solutions = 2)
     11    13     3775.9265     2     3775.7776     3776.3478    37250    0.02%
     12    14     3775.8723     6     3775.7776     3776.3478    37971    0.02%
     13    15     3775.9193     4     3775.7776     3776.3478    38587    0.02%
*    14     9      integral     0     3775.9193     3776.3478    38596    0.01%
     15    10     3776.2786    46     3775.9193     3776.3477    45933    0.01%
     16    11     3776.2531    40     3775.9193     3776.3477    46534    0.01%
     17    12     3776.1464    22     3775.9193     3776.3477    47324    0.01%
     18    13     3776.1290    20     3775.9193     3776.3477    48327    0.01%
     19    14     3776.1208    10     3775.9193     3776.3477    48341    0.01%
*    20+    9                         3776.0937     3776.3477             0.01%
     20    11     3776.1097     2     3776.0937     3776.3477    48586    0.01%
Elapsed time = 963.57 sec. (559522.32 ticks, tree = 3.23 MB, solutions = 4)
     21    10        cutoff           3776.0937     3776.3477    49219    0.01%
     22    11     3776.1092     2     3776.0937     3776.3477    49257    0.01%
     23    12     3776.1082     2     3776.0937     3776.3477    49313    0.01%
     24    11        cutoff           3776.0937     3776.3477    49521    0.01%
     25    12     3776.1068     4     3776.0937     3776.3477    49584    0.01%
     26    11        cutoff           3776.0937     3776.3477    49689    0.01%
     27    10        cutoff           3776.0937     3776.3477    49728    0.01%
     28    11     3776.1000    18     3776.0937     3776.3477    50263    0.01%
     29    12     3776.0990    16     3776.0937     3776.3477    50327    0.01%
     30    13     3776.0960    10     3776.0937     3776.3477    50598    0.01%
Elapsed time = 1104.94 sec. (612756.14 ticks, tree = 11.58 MB, solutions = 4)
     31    12        cutoff           3776.0937     3776.3477    50830    0.01%
     33    12     3776.2634    43     3776.0937     3776.2778    51245    0.00%
     34    13     3776.2012    32     3776.0937     3776.2778    51919    0.00%
     35    14     3776.1408     2     3776.0937     3776.2778    52219    0.00%
     36    15     3776.1397     4     3776.0937     3776.2778    52261    0.00%
     37    14        cutoff           3776.0937     3776.2778    53419    0.00%
     38    15     3776.1356     2     3776.0937     3776.2778    53639    0.00%
     39    16     3776.1262     6     3776.0937     3776.2778    54220    0.00%
*    40+   13                         3776.1115     3776.2778             0.00%
     40    15     3776.1260     2     3776.1115     3776.2778    54232    0.00%
     41    16     3776.1143     8     3776.1115     3776.2778    54878    0.00%
Elapsed time = 1379.05 sec. (739971.04 ticks, tree = 12.66 MB, solutions = 5)
     42    15        cutoff           3776.1115     3776.2778    55029    0.00%
     44    15     3776.2563    35     3776.1115     3776.2632    55328    0.00%
     45    16     3776.1203    22     3776.1115     3776.2632    56039    0.00%
     46    15        cutoff           3776.1115     3776.2632    56277    0.00%
     48    15     3776.2554    39     3776.1115     3776.2562    56652    0.00%
     49    16     3776.2272    43     3776.1115     3776.2562    56860    0.00%
     50    17     3776.1560    41     3776.1115     3776.2562    57258    0.00%
     51    18     3776.1443    34     3776.1115     3776.2562    57344    0.00%
     52    17        cutoff           3776.1115     3776.2562    57515    0.00%
     53    16        cutoff           3776.1115     3776.2562    57980    0.00%
Elapsed time = 1543.50 sec. (805322.08 ticks, tree = 13.02 MB, solutions = 5)
     54    17     3776.2086    31     3776.1115     3776.2553    64616    0.00%
     55    18     3776.1663    26     3776.1115     3776.2553    64699    0.00%
     56    17        cutoff           3776.1115     3776.2553    64934    0.00%
     57    16        cutoff           3776.1115     3776.2553    65070    0.00%
     58    17     3776.2323    37     3776.1115     3776.2530    65333    0.00%
     59    18     3776.2045    36     3776.1115     3776.2530    65585    0.00%
     60    19     3776.1551    33     3776.1115     3776.2530    66406    0.00%
     61    20     3776.1166    38     3776.1115     3776.2530    68645    0.00%
     62    19        cutoff           3776.1115     3776.2530    70499    0.00%
     63    18        cutoff           3776.1115     3776.2530    70520    0.00%
Elapsed time = 1737.87 sec. (893269.69 ticks, tree = 13.73 MB, solutions = 5)
     64    19     3776.1446    25     3776.1115     3776.2305    82480    0.00%
     65    18        cutoff           3776.1115     3776.2305    82606    0.00%
     66    17        cutoff           3776.1115     3776.2305    82863    0.00%
     67    18     3776.1798     6     3776.1115     3776.2280    83002    0.00%
     68    19     3776.1736     4     3776.1115     3776.2280    83194    0.00%
     69    18        cutoff           3776.1115     3776.2280    83482    0.00%
*    70     8      integral     0     3776.1516     3776.2280    84580    0.00%
     71     9     3776.1565    35     3776.1516     3776.2272    84887    0.00%
     74     8     3776.1727    37     3776.1516     3776.2085    85052    0.00%
     75     7        cutoff           3776.1516     3776.2085    85146    0.00%
Elapsed time = 1951.00 sec. (968969.56 ticks, tree = 2.16 MB, solutions = 6)
     76     6        cutoff           3776.1516     3776.2085    85349    0.00%
     77     7     3776.1827    20     3776.1516     3776.2045    85458    0.00%
     80     6     3776.1620    27     3776.1516     3776.2011    86173    0.00%
     81     5        cutoff           3776.1516     3776.2011    86940    0.00%
     83     3        cutoff           3776.1516     3776.1798    87208    0.00%
     84     2        cutoff           3776.1516     3776.1556    87296    0.00%
     86     0        cutoff           3776.1516     3776.1516    87320    0.00%

Gomory fractional cuts applied:  2
User cuts applied:  3

Root node processing (before b&c):
  Real time             =  171.76 sec. (131099.23 ticks)
Sequential b&c:
  Real time             = 1932.75 sec. (910327.19 ticks)
                          ------------
Total (root+branch&cut) = 2104.51 sec. (1041426.42 ticks)
@Parameters: 
is_S_cut                                true
is_add_all_yinF                         true
is_start_value                          true
is_usercut                              true
is_visualization                        false
uc_only_rootnode                        false

data                                    Qi
fn                                      data/Qi/instance_1000_1000.csv
mode                                    ZLP
solver                                  cplex

p                                       50
r                                       5

EPS                                     1.0e-06
EPS_vio                                 1.0e-04
beta                                    0.10
gap                                     0.00
nodelimit                               Inf
timelimit                               7200.00


@PrintInfos
ItCnt: 87320
Current gap: 0.00 %
Termination Status: OPTIMAL
Primal Status: FEASIBLE_POINT
Solve Time: 2104.51 sec
Objective Value: 3776.151604
Number of Nodes:     87

CutInfo: [phase] num / time (sec) 
ZLP             [phase1]     0 / 0.00 [rLC]     2 / 16.94 [rUC]     4 / 27.21 [sLC]     0 / 29.73 [sUC]     2 / 628.21 
OldSubmodular   [phase1]     0 / 0.00 [rLC]     0 / 0.00 [rUC]     0 / 0.00 [sLC]     0 / 0.00 [sUC]     0 / 0.00 
NewSubmodular   [phase1]     0 / 0.00 [rLC]     0 / 0.00 [rUC]     0 / 0.00 [sLC]     0 / 0.00 [sUC]     0 / 0.00 
PMP             [phase1]     0 / 0.00 [rLC]     3 / 11.85 [rUC]     4 / 21.33 [sLC]     5 / 26.18 [sUC]   106 / 532.68 
Separation Round: [phase1] 0  [rLC] 3  [rUC] 4  [sLC] 5  [sUC] 106
Root Best Bound 3776.347773
Root Best Integer: 3773.564848
Best Bound: 3776.151604
Best Integer: 3776.151604

